clingo version 5.6.2
Reading from ...togen_asp_scripts/ijp_expt_cases-32.dl
Solving...
UNSATISFIABLE

Models       : 0
Calls        : 1
Time         : 1116.543s (Solving: 1115.48s 1st Model: 0.00s Unsat: 1115.48s)
CPU Time     : 1110.842s
